5114973863590298483509,12,1,2,01,8,1,2,013,9,1,2,011,11,1,2,02,13,1,2,08,8,1,2,06,15,1,2,09,9,1,2,012,15,1,2,011,12,1,2,07,13,1,2,03,15,1,2,010,14,1,2,011,7,1,2,011,6,1,2,05,9,1,2,06,6,1,2,04,15,1,2,014,11,1,2,015,5,1,2,01,1,1,2,08,4,1,2,01,10,1,2,012,10,1,2,09,5,1,2,05,15,1,2,04,11,1,2,04,4,1,2,02,12,1,2,07,6,1,2,05,10,1,2,010,9,1,2,011,7,1,2,07,9,1,2,014,6,1,2,07,2,1,2,010,6,1,2,09,3,1,2,07,10,1,2,014,3,1,2,014,14,1,2,013,15,1,2,011,12,1,2,011,3,1,2,013,2,1,2,011,9,1,2,08,10,1,2,04,10,1,2,06,8,1,2,013,11,1,2,0